
Gurobi 9.1.2 (win64) logging started Tue Dec  7 11:08:51 2021

Gurobi Optimizer version 9.1.2 build v9.1.2rc0 (win64)
Thread count: 8 physical cores, 8 logical processors, using up to 8 threads
Optimize a model with 1 rows, 23 columns and 22 nonzeros
Model fingerprint: 0xa19c16f4
Variable types: 1 continuous, 22 integer (22 binary)
Coefficient statistics:
  Matrix range     [1e+00, 1e+01]
  Objective range  [1e+00, 1e+00]
  Bounds range     [9e-01, 9e-01]
  RHS range        [1e+01, 1e+01]
Presolve time: 0.00s
Presolved: 1 rows, 23 columns, 22 nonzeros
Variable types: 1 continuous, 22 integer (22 binary)

Root simplex log...

Iteration    Objective       Primal Inf.    Dual Inf.      Time
       0   -9.4830768e-01   8.234876e-02   0.000000e+00     15s
       2   -9.4830768e-01   0.000000e+00   0.000000e+00     15s

Root relaxation: objective -9.483077e-01, 2 iterations, 0.00 seconds

    Nodes    |    Current Node    |     Objective Bounds      |     Work
 Expl Unexpl |  Obj  Depth IntInf | Incumbent    BestBd   Gap | It/Node Time

     0     0   -0.94831    0    1          -   -0.94831      -     -   14s
H    0     0                       0.8581604   -0.94831   211%     -   14s
H    0     0                       0.8225563   -0.94831   215%     -   14s
H    0     0                       0.7558931   -0.94831   225%     -   14s
     0     0   -0.75912    0    5    0.75589   -0.75912   200%     -   14s
     0     0    0.39861    0    5    0.75589    0.39861  47.3%     -   14s
     0     0    0.42413    0    4    0.75589    0.42413  43.9%     -   14s

Cutting planes:
  Cover: 2
  MIR: 1
  StrongCG: 3
  Relax-and-lift: 1
  Lazy constraints: 7

Explored 1 nodes (38 simplex iterations) in 14.91 seconds
Thread count was 8 (of 8 available processors)

Solution count 3: 0.755893 0.822556 0.85816 

Optimal solution found (tolerance 1.00e-04)
Best objective 7.558931413710e-01, best bound 7.558931413710e-01, gap 0.0000%

User-callback calls 108, time in user-callback 18.64 sec
